
******************************************************************************
This program contains Ipopt, a library for large-scale nonlinear optimization.
 Ipopt is released as open source code under the Eclipse Public License (EPL).
         For more information visit https://github.com/coin-or/Ipopt
******************************************************************************

This is Ipopt version 3.14.16, running with linear solver MUMPS 5.7.1.

Number of nonzeros in equality constraint Jacobian...:    99670
Number of nonzeros in inequality constraint Jacobian.:        0
Number of nonzeros in Lagrangian Hessian.............:    61521

Total number of variables............................:      501
                     variables with only lower bounds:        0
                variables with lower and upper bounds:      501
                     variables with only upper bounds:        0
Total number of equality constraints.................:      200
Total number of inequality constraints...............:        0
        inequality constraints with only lower bounds:        0
   inequality constraints with lower and upper bounds:        0
        inequality constraints with only upper bounds:        0

iter    objective    inf_pr   inf_du lg(mu)  ||d||  lg(rg) alpha_du alpha_pr  ls
   0  4.9187461e-04 5.16e+02 4.15e-05  -1.0 0.00e+00    -  0.00e+00 0.00e+00   0
   1  5.0347464e-01 3.87e+01 8.82e-01  -1.0 6.05e+00    -  6.93e-01 1.00e+00h  1
   2  5.4220756e-01 5.30e+00 4.00e+01  -1.0 2.66e-01   2.0 9.91e-01 1.00e+00h  1
   3  5.4145719e-01 2.67e-01 1.43e+01  -1.0 6.55e-02   2.4 1.00e+00 1.00e+00h  1
   4  5.4144179e-01 1.88e-04 1.29e-01  -1.0 1.48e-03   1.9 1.00e+00 1.00e+00h  1
   5  5.4132705e-01 3.42e-06 1.15e-02  -2.5 3.87e-04   1.5 1.00e+00 1.00e+00h  1
   6  5.4098031e-01 3.05e-05 1.15e-02  -3.8 1.17e-03   1.0 1.00e+00 1.00e+00h  1
   7  5.3994345e-01 2.71e-04 1.15e-02  -3.8 3.50e-03   0.5 1.00e+00 1.00e+00h  1
   8  5.3686268e-01 2.39e-03 1.15e-02  -3.8 1.05e-02   0.0 1.00e+00 1.00e+00h  1
   9  5.2788045e-01 2.15e-02 1.13e-02  -3.8 3.09e-02  -0.4 1.00e+00 1.00e+00h  1
iter    objective    inf_pr   inf_du lg(mu)  ||d||  lg(rg) alpha_du alpha_pr  ls
  10  5.0306478e-01 1.89e-01 1.06e-02  -3.8 8.80e-02  -0.9 1.00e+00 1.00e+00h  1
  11  4.4310132e-01 1.76e+00 8.07e-03  -3.8 2.41e-01  -1.4 1.00e+00 1.00e+00h  1
  12  4.2237138e-01 1.07e-01 8.30e-03  -3.8 8.04e-02  -1.0 1.00e+00 1.00e+00h  1
  13  3.7607494e-01 9.37e-01 7.47e-03  -3.8 2.28e-01  -1.4 1.00e+00 1.00e+00h  1
  14  3.6210934e-01 7.36e-02 7.20e-03  -3.8 7.53e-02  -1.0 1.00e+00 1.00e+00h  1
  15  3.2708771e-01 7.85e-01 5.67e-03  -3.8 1.76e-01  -1.5 1.00e+00 1.00e+00h  1
  16  3.1631861e-01 7.53e-02 5.30e-03  -3.8 6.19e-02  -1.1 1.00e+00 1.00e+00h  1
  17  2.8901602e-01 6.14e-01 4.25e-03  -3.8 1.50e-01  -1.5 1.00e+00 1.00e+00h  1
  18  2.3454862e-01 5.20e+00 8.80e-03  -3.8 6.24e-01  -2.0 1.00e+00 1.00e+00h  1
  19  2.1498556e-01 8.74e-01 4.06e-03  -3.8 1.94e-01  -1.6 1.00e+00 1.00e+00h  1
iter    objective    inf_pr   inf_du lg(mu)  ||d||  lg(rg) alpha_du alpha_pr  ls
  20  1.8645391e-01 7.95e-01 3.22e-03  -3.8 3.98e-01  -2.1 1.00e+00 1.00e+00h  1
  21  1.7777151e-01 7.08e-02 3.07e-03  -3.8 1.37e-01  -1.6 1.00e+00 1.00e+00h  1
  22  1.5892343e-01 9.46e-01 2.71e-03  -3.8 3.66e-01  -2.1 1.00e+00 1.00e+00h  1
  23  1.5251201e-01 9.94e-02 2.59e-03  -3.8 1.29e-01  -1.7 1.00e+00 1.00e+00h  1
  24  1.3846804e-01 1.88e+00 2.13e-03  -3.8 4.71e-01  -2.2 1.00e+00 1.00e+00h  1
  25  1.1757625e-01 5.17e+00 2.22e-03  -3.8 9.73e-01  -2.7 1.00e+00 1.00e+00h  1
  26  1.1066231e-01 1.37e+00 1.30e-03  -3.8 2.75e-01  -2.2 1.00e+00 1.00e+00h  1
  27  1.0176252e-01 1.32e+00 9.26e-04  -3.8 4.88e-01  -2.7 1.00e+00 1.00e+00h  1
  28  9.9347294e-02 1.43e-01 8.80e-04  -3.8 1.67e-01  -2.3 1.00e+00 1.00e+00h  1
  29  9.3228077e-02 9.07e+00 7.07e-04  -3.8 9.32e-01  -2.8 1.00e+00 1.00e+00h  1
iter    objective    inf_pr   inf_du lg(mu)  ||d||  lg(rg) alpha_du alpha_pr  ls
  30  8.4672298e-02 9.05e+00 1.10e-03  -3.8 1.03e+00  -3.2 1.00e+00 1.00e+00h  1
  31  8.2683262e-02 1.02e+00 4.38e-04  -3.8 2.56e-01  -2.8 1.00e+00 1.00e+00h  1
  32  7.9656692e-02 2.05e+00 4.44e-04  -3.8 7.25e-01  -3.3 1.00e+00 1.00e+00h  1
  33  7.8398932e-02 3.30e-01 4.22e-04  -3.8 3.18e-01  -2.9 1.00e+00 1.00e+00h  1
  34  7.6205748e-02 8.80e+00 4.80e-04  -3.8 9.85e-01  -3.3 1.00e+00 1.00e+00h  1
  35  7.4925649e-02 1.11e+00 4.78e-04  -3.8 3.88e-01  -2.9 1.00e+00 1.00e+00h  1
  36  7.4822211e-02 3.88e-02 4.50e-04  -3.8 1.37e-01  -2.5 1.00e+00 1.00e+00h  1
  37  7.4082747e-02 2.43e+00 4.30e-04  -3.8 4.29e-01  -3.0 1.00e+00 1.00e+00h  1
  38  7.2263688e-02 3.01e+00 3.42e-04  -3.8 9.57e-01  -3.4 1.00e+00 1.00e+00h  1
  39  7.0971813e-02 2.18e+01 1.10e-03  -3.8 2.29e+00  -3.9 1.00e+00 1.00e+00h  1
iter    objective    inf_pr   inf_du lg(mu)  ||d||  lg(rg) alpha_du alpha_pr  ls
  40  6.8377499e-02 6.20e+00 9.30e-04  -3.8 1.27e+00  -3.5 1.00e+00 1.00e+00h  1
  41  6.8292026e-02 5.70e+00 1.46e-03  -3.8 4.07e-01  -3.1 1.00e+00 1.00e+00h  1
  42  6.7867891e-02 5.31e+00 9.26e-04  -3.8 7.93e-01  -3.5 1.00e+00 1.00e+00h  1
  43  6.7832015e-02 1.04e+01 7.96e-04  -3.8 2.14e+01  -4.0 1.00e+00 1.25e-01h  4
  44  6.8384059e-02 8.14e-01 3.09e-04  -3.8 1.70e-01  -2.7 1.00e+00 1.00e+00h  1
  45  6.8344671e-02 3.87e-01 1.32e-04  -3.8 1.83e-01  -3.2 1.00e+00 1.00e+00h  1
  46  6.9051344e-02 1.16e-01 8.41e-04  -3.8 2.81e+00  -3.6 1.00e+00 1.00e+00H  1
  47  6.8311932e-02 2.77e-02 8.13e-04  -3.8 1.95e-01  -2.3 1.00e+00 1.00e+00H  1
  48  6.7039585e-02 3.90e+00 4.50e-04  -3.8 4.24e-01  -2.8 1.00e+00 1.00e+00h  1
  49  6.7135216e-02 8.77e-01 2.03e-04  -3.8 3.23e-01  -3.3 1.00e+00 1.00e+00h  1
iter    objective    inf_pr   inf_du lg(mu)  ||d||  lg(rg) alpha_du alpha_pr  ls
  50  6.6950703e-02 1.17e+00 1.23e-04  -3.8 5.95e-01  -3.7 1.00e+00 1.00e+00h  1
  51  6.6749696e-02 7.78e-01 5.30e-05  -3.8 8.86e-01  -4.2 1.00e+00 1.00e+00h  1
  52  6.6698921e-02 1.12e-01 3.89e-05  -3.8 2.42e-01  -3.8 1.00e+00 1.00e+00h  1
  53  6.6681620e-02 1.90e-02 3.44e-05  -3.8 8.03e-02  -3.4 1.00e+00 1.00e+00h  1
  54  6.6678938e-02 2.77e+00 1.87e-04  -3.8 1.26e+00  -3.8 1.00e+00 5.00e-01h  2
  55  6.6640813e-02 8.77e-02 1.97e-04  -3.8 6.91e-02  -2.5 1.00e+00 1.00e+00h  1
  56  6.6595419e-02 9.25e-02 1.03e-04  -3.8 1.12e-01  -3.0 1.00e+00 1.00e+00h  1
  57  6.6530354e-02 1.75e+00 2.25e-04  -3.8 4.38e-01  -3.5 1.00e+00 1.00e+00h  1
  58  6.6112503e-02 1.06e+01 8.50e-04  -3.8 2.11e+00  -3.9 1.00e+00 1.00e+00h  1
  59  6.6447408e-02 2.90e+00 5.57e-04  -3.8 2.24e-01  -2.6 1.00e+00 1.00e+00h  1
iter    objective    inf_pr   inf_du lg(mu)  ||d||  lg(rg) alpha_du alpha_pr  ls
  60  6.6116271e-02 7.14e+00 4.70e-04  -3.8 5.42e-01  -3.1 1.00e+00 1.00e+00h  1
  61  6.5589608e-02 9.08e+00 6.43e-04  -3.8 1.37e+00  -3.6 1.00e+00 1.00e+00h  1
  62  6.6498030e-02 3.75e-01 7.02e-04  -3.8 9.86e-02  -2.2 1.00e+00 1.00e+00h  1
  63  6.6075229e-02 8.12e+00 7.47e-04  -3.8 1.52e+00  -2.7 1.00e+00 5.00e-01h  2
  64  6.5933401e-02 6.48e+00 9.16e-04  -3.8 3.61e+00    -  1.00e+00 1.00e+00h  1
  65  6.5225232e-02 4.98e+00 4.93e-04  -3.8 1.32e+00    -  1.00e+00 1.00e+00h  1
  66  6.5649291e-02 7.16e-01 5.88e-05  -3.8 1.02e+00    -  1.00e+00 1.00e+00h  1
  67  6.5738077e-02 7.02e-02 4.12e-06  -3.8 1.75e-01    -  1.00e+00 1.00e+00h  1
  68  6.5740789e-02 3.51e-04 2.84e-08  -3.8 1.32e-02    -  1.00e+00 1.00e+00h  1
  69  6.5739357e-02 2.19e-04 5.02e-09  -5.7 9.82e-03    -  1.00e+00 1.00e+00h  1
iter    objective    inf_pr   inf_du lg(mu)  ||d||  lg(rg) alpha_du alpha_pr  ls
  70  6.5739341e-02 8.99e-10 5.17e-14  -5.7 2.14e-05    -  1.00e+00 1.00e+00h  1
  71  6.5739341e-02 3.38e-08 7.70e-13  -8.6 1.22e-04    -  1.00e+00 1.00e+00h  1
  72  6.5739341e-02 1.32e-11 8.05e-18  -9.0 1.08e-07    -  1.00e+00 1.00e+00h  1

Number of Iterations....: 72

                                   (scaled)                 (unscaled)
Objective...............:   6.5739341002912913e-02    6.5739341002912913e-02
Dual infeasibility......:   8.0515033197841820e-18    8.0515033197841820e-18
Constraint violation....:   8.6216195419449038e-14    1.3159806577789368e-11
Variable bound violation:   0.0000000000000000e+00    0.0000000000000000e+00
Complementarity.........:   9.0909092360170225e-10    9.0909092360170225e-10
Overall NLP error.......:   9.0909092360170225e-10    9.0909092360170225e-10


Number of objective function evaluations             = 87
Number of objective gradient evaluations             = 73
Number of equality constraint evaluations            = 87
Number of inequality constraint evaluations          = 0
Number of equality constraint Jacobian evaluations   = 73
Number of inequality constraint Jacobian evaluations = 0
Number of Lagrangian Hessian evaluations             = 72
Total seconds in IPOPT                               = 3.685

EXIT: Optimal Solution Found.
